p cnf 50 60
2 -11 -42 0
-8 -23 35 0
-33 -23 -41 0
-39 30 13 0
-15 -22 -3 0
11 -36 8 0
-39 -7 16 0
-1 -32 -21 0
-1 -8 -50 0
6 -39 30 0
-26 -41 38 0
-6 -5 -16 0
-38 -40 -8 0
36 -1 13 0
40 -50 30 0
-25 -47 8 0
-42 43 47 0
-12 -49 -35 0
-2 11 -43 0
-8 28 20 0
22 12 3 0
19 42 43 0
20 -31 26 0
4 40 -38 0
3 34 44 0
-4 -11 48 0
9 15 34 0
-20 -38 25 0
36 6 -43 0
7 -29 38 0
16 -13 34 0
-26 44 -13 0
-12 -9 31 0
3 33 30 0
28 -14 -50 0
-49 -40 -21 0
33 50 17 0
-13 -10 22 0
11 37 -8 0
-37 44 36 0
-18 3 35 0
30 -18 -46 0
-11 -38 -16 0
50 31 -20 0
-22 -29 -36 0
-25 28 -37 0
18 33 -30 0
-10 -5 38 0
37 -14 18 0
-31 20 48 0
x -1 -2 -4 -5 -6 -9 12 -13 -14 15 -16 18 22 -23 -24 -25 27 29 32 33 -36 -37 38 40 43 -44 -46 -48 49 0
x 1 -3 4 -6 -7 10 -12 -13 -17 -18 -20 23 -24 -26 27 29 -32 34 35 -36 -38 -40 42 -43 45 47 48 -49 -50 0
x -1 2 4 5 -10 -12 15 -18 19 -20 -21 22 -25 -26 28 -29 31 -32 37 39 -44 -46 -49 0
x 1 -3 6 7 -11 12 -13 14 -15 16 20 21 23 -27 -32 -33 34 -36 -38 39 -40 41 44 45 -46 -49 0
x -1 2 -3 4 -5 6 7 -8 -12 -13 -16 18 20 22 -25 28 29 -31 -32 -33 -34 -35 -36 -37 38 -39 41 42 44 -45 -47 48 0
x 4 -7 8 -9 10 -11 -12 -16 17 -18 -23 27 29 -32 33 -34 -35 36 37 39 40 43 -45 46 -48 49 -50 0
x -2 -4 7 9 10 -11 13 -14 -16 -18 -19 21 22 23 26 -27 29 -32 -36 37 -38 39 -40 -41 -42 -43 44 45 46 47 -48 -50 0
x 3 4 8 9 10 13 -15 16 -20 -21 22 23 -25 -26 -27 -28 -29 30 31 -32 33 37 -42 -44 -47 48 49 0
x -1 2 -4 17 -20 22 24 34 35 36 37 38 42 46 47 -48 49 0
x 1 -5 6 10 -12 14 16 -19 -22 -23 -25 -26 32 35 -40 44 45 46 47 49 -50 0
